NAME 
ROWS
 N  OBJ
 L  R0      
 L  R1      
 E  R2      
 E  R3      
 E  R4      
 E  R5      
 E  R6      
 E  R7      
 E  R8      
 E  R9      
 E  R10     
 E  R11     
 E  R12     
 E  R13     
 E  R14     
 E  R15     
 E  R16     
 E  R17     
 E  R18     
 E  R19     
 E  R20     
 E  R21     
 E  R22     
 E  R23     
 E  R24     
 E  R25     
 E  R26     
COLUMNS
    MARKER    'MARKER'                 'INTORG'
    I0(8)     OBJ       -121
    I0(8)     R0        -170
    I0(8)     R1        184
    I0(8)     R4        13
    I0(8)     R6        10
    I0(8)     R8        19
    I0(8)     R10       4
    I0(8)     R11       2
    I0(8)     R26       1
    I1(6)     OBJ       68
    I1(6)     R0        -182
    I1(6)     R1        21
    I1(6)     R3        13
    I1(6)     R4        15
    I1(6)     R11       16
    I1(6)     R26       1
    I2(9)     OBJ       -191
    I2(9)     R0        -28
    I2(9)     R1        17
    I2(9)     R4        1
    I2(9)     R6        6
    I2(9)     R7        15
    I2(9)     R9        7
    I2(9)     R10       3
    I2(9)     R11       5
    I2(9)     R26       1
    I3(6)     OBJ       -122
    I3(6)     R0        -45
    I3(6)     R1        -194
    I3(6)     R6        10
    I3(6)     R7        12
    I3(6)     R8        7
    I3(6)     R26       1
    I4(6)     OBJ       57
    I4(6)     R0        153
    I4(6)     R1        -130
    I4(6)     R2        19
    I4(6)     R4        11
    I4(6)     R10       3
    I4(6)     R26       1
    I5(8)     OBJ       -104
    I5(8)     R0        198
    I5(8)     R1        -186
    I5(8)     R3        4
    I5(8)     R6        16
    I5(8)     R7        10
    I5(8)     R8        16
    I5(8)     R11       3
    I5(8)     R26       1
    I6(10)    OBJ       113
    I6(10)    R0        149
    I6(10)    R1        109
    I6(10)    R2        4
    I6(10)    R4        8
    I6(10)    R6        11
    I6(10)    R7        7
    I6(10)    R8        9
    I6(10)    R10       14
    I6(10)    R11       19
    I6(10)    R26       1
    I7(10)    OBJ       -105
    I7(10)    R0        60
    I7(10)    R1        99
    I7(10)    R3        19
    I7(10)    R4        17
    I7(10)    R6        18
    I7(10)    R7        14
    I7(10)    R8        2
    I7(10)    R9        10
    I7(10)    R11       19
    I7(10)    R26       1
    I8(6)     OBJ       112
    I8(6)     R0        157
    I8(6)     R1        146
    I8(6)     R2        1
    I8(6)     R4        14
    I8(6)     R10       2
    I8(6)     R26       1
    I9(7)     OBJ       124
    I9(7)     R0        -143
    I9(7)     R1        139
    I9(7)     R2        13
    I9(7)     R3        9
    I9(7)     R4        1
    I9(7)     R7        9
    I9(7)     R26       1
    MARKER    'MARKER'                 'INTEND'
    C10(14)   OBJ       8
    C10(14)   R0        5
    C10(14)   R1        6
    C10(14)   R2        8
    C10(14)   R3        17
    C10(14)   R7        4
    C10(14)   R8        12
    C10(14)   R9        8
    C10(14)   R12       7
    C10(14)   R14       18
    C10(14)   R15       16
    C10(14)   R17       8
    C10(14)   R21       9
    C10(14)   R22       18
    C10(14)   R23       18
    C11(12)   OBJ       -10
    C11(12)   R0        -5
    C11(12)   R1        -9
    C11(12)   R3        13
    C11(12)   R5        11
    C11(12)   R9        6
    C11(12)   R16       19
    C11(12)   R18       -1
    C11(12)   R19       19
    C11(12)   R20       3
    C11(12)   R21       7
    C11(12)   R22       4
    C11(12)   R23       -1
    C12(12)   R0        9
    C12(12)   R1        5
    C12(12)   R3        5
    C12(12)   R9        2
    C12(12)   R12       16
    C12(12)   R14       18
    C12(12)   R16       11
    C12(12)   R17       7
    C12(12)   R19       10
    C12(12)   R22       16
    C12(12)   R23       16
    C12(12)   R24       2
    C13(14)   OBJ       -5
    C13(14)   R0        -8
    C13(14)   R1        -9
    C13(14)   R2        16
    C13(14)   R3        10
    C13(14)   R4        15
    C13(14)   R5        12
    C13(14)   R6        18
    C13(14)   R7        17
    C13(14)   R8        5
    C13(14)   R9        5
    C13(14)   R13       13
    C13(14)   R15       13
    C13(14)   R16       12
    C13(14)   R25       3
    C14(11)   OBJ       -7
    C14(11)   R0        -8
    C14(11)   R2        18
    C14(11)   R8        10
    C14(11)   R11       8
    C14(11)   R12       16
    C14(11)   R13       5
    C14(11)   R17       8
    C14(11)   R18       2
    C14(11)   R21       3
    C14(11)   R24       1
    C14(11)   R25       8
    C15(17)   OBJ       -7
    C15(17)   R0        2
    C15(17)   R1        -2
    C15(17)   R2        17
    C15(17)   R3        6
    C15(17)   R6        3
    C15(17)   R7        14
    C15(17)   R8        14
    C15(17)   R9        12
    C15(17)   R11       1
    C15(17)   R12       16
    C15(17)   R16       13
    C15(17)   R17       12
    C15(17)   R19       15
    C15(17)   R20       16
    C15(17)   R21       14
    C15(17)   R22       1
    C15(17)   R24       19
    C16(20)   OBJ       9
    C16(20)   R0        -3
    C16(20)   R1        8
    C16(20)   R4        19
    C16(20)   R7        18
    C16(20)   R8        10
    C16(20)   R9        17
    C16(20)   R10       -1
    C16(20)   R11       7
    C16(20)   R12       8
    C16(20)   R14       -1
    C16(20)   R15       9
    C16(20)   R16       14
    C16(20)   R17       12
    C16(20)   R18       2
    C16(20)   R19       19
    C16(20)   R20       6
    C16(20)   R21       -1
    C16(20)   R22       1
    C16(20)   R23       9
    C16(20)   R24       4
    C17(20)   OBJ       6
    C17(20)   R0        -1
    C17(20)   R1        -8
    C17(20)   R2        9
    C17(20)   R3        12
    C17(20)   R4        16
    C17(20)   R6        4
    C17(20)   R8        12
    C17(20)   R9        6
    C17(20)   R12       10
    C17(20)   R13       3
    C17(20)   R14       7
    C17(20)   R15       19
    C17(20)   R16       7
    C17(20)   R18       -1
    C17(20)   R19       3
    C17(20)   R21       6
    C17(20)   R22       11
    C17(20)   R23       8
    C17(20)   R24       13
    C17(20)   R25       16
    C18(11)   OBJ       -10
    C18(11)   R0        -5
    C18(11)   R1        -2
    C18(11)   R3        10
    C18(11)   R4        1
    C18(11)   R9        18
    C18(11)   R11       4
    C18(11)   R12       10
    C18(11)   R14       13
    C18(11)   R16       4
    C18(11)   R23       19
    C18(11)   R24       8
    C19(17)   OBJ       -1
    C19(17)   R0        -2
    C19(17)   R1        -9
    C19(17)   R2        15
    C19(17)   R3        6
    C19(17)   R4        6
    C19(17)   R5        1
    C19(17)   R6        5
    C19(17)   R9        19
    C19(17)   R10       7
    C19(17)   R11       6
    C19(17)   R12       7
    C19(17)   R13       11
    C19(17)   R15       1
    C19(17)   R17       13
    C19(17)   R19       17
    C19(17)   R20       9
    C19(17)   R21       15
    C20(16)   OBJ       -1
    C20(16)   R0        1
    C20(16)   R1        -5
    C20(16)   R3        19
    C20(16)   R4        13
    C20(16)   R6        3
    C20(16)   R7        9
    C20(16)   R9        3
    C20(16)   R11       9
    C20(16)   R12       5
    C20(16)   R14       7
    C20(16)   R15       1
    C20(16)   R16       18
    C20(16)   R17       16
    C20(16)   R18       1
    C20(16)   R21       14
    C20(16)   R22       1
    C21(13)   OBJ       4
    C21(13)   R0        -6
    C21(13)   R1        8
    C21(13)   R5        3
    C21(13)   R6        6
    C21(13)   R7        11
    C21(13)   R8        14
    C21(13)   R10       8
    C21(13)   R11       19
    C21(13)   R14       15
    C21(13)   R16       13
    C21(13)   R17       7
    C21(13)   R19       18
    C21(13)   R24       13
    C22(15)   OBJ       -10
    C22(15)   R0        5
    C22(15)   R1        3
    C22(15)   R2        18
    C22(15)   R3        4
    C22(15)   R6        15
    C22(15)   R8        19
    C22(15)   R9        1
    C22(15)   R11       14
    C22(15)   R12       9
    C22(15)   R13       14
    C22(15)   R16       13
    C22(15)   R17       1
    C22(15)   R18       16
    C22(15)   R22       13
    C22(15)   R25       8
    C23(13)   OBJ       3
    C23(13)   R0        6
    C23(13)   R1        6
    C23(13)   R2        3
    C23(13)   R4        16
    C23(13)   R8        8
    C23(13)   R14       3
    C23(13)   R16       7
    C23(13)   R19       9
    C23(13)   R21       -1
    C23(13)   R22       5
    C23(13)   R23       11
    C23(13)   R24       12
    C23(13)   R25       3
    C24(18)   OBJ       -10
    C24(18)   R0        5
    C24(18)   R1        -5
    C24(18)   R2        8
    C24(18)   R3        12
    C24(18)   R4        9
    C24(18)   R6        18
    C24(18)   R8        17
    C24(18)   R9        19
    C24(18)   R10       7
    C24(18)   R11       2
    C24(18)   R13       13
    C24(18)   R14       8
    C24(18)   R15       14
    C24(18)   R16       9
    C24(18)   R17       12
    C24(18)   R19       19
    C24(18)   R20       15
    C24(18)   R23       17
    C25(1)    R2        1
    C26(1)    R3        1
    C27(1)    R4        1
    C28(1)    R5        1
    C29(1)    R6        1
    C30(1)    R7        1
    C31(1)    R8        1
    C32(1)    R9        1
    C33(1)    R10       1
    C34(1)    R11       1
    C35(1)    R12       1
    C36(1)    R13       1
    C37(1)    R14       1
    C38(1)    R15       1
    C39(1)    R16       1
    C40(1)    R17       1
    C41(1)    R18       1
    C42(1)    R19       1
    C43(1)    R20       1
    C44(1)    R21       1
    C45(1)    R22       1
    C46(1)    R23       1
    C47(1)    R24       1
    C48(1)    R25       1
    C49(1)    R26       1
RHS
    RHS1      R0        -1.5602179984160733e+02
    RHS1      R1        -1.9029782001583928e+02
    RHS1      R2        87
    RHS1      R3        65
    RHS1      R4        79
    RHS1      R5        85
    RHS1      R6        98
    RHS1      R7        82
    RHS1      R8        85
    RHS1      R9        61
    RHS1      R10       99
    RHS1      R11       81
    RHS1      R12       86
    RHS1      R13       89
    RHS1      R14       53
    RHS1      R15       54
    RHS1      R16       63
    RHS1      R17       55
    RHS1      R18       69
    RHS1      R19       77
    RHS1      R20       86
    RHS1      R21       63
    RHS1      R22       80
    RHS1      R23       67
    RHS1      R24       60
    RHS1      R25       97
    RHS1      R26       3
BOUNDS
 UP BND1      I0(8)     2
 UP BND1      I1(6)     2
 UP BND1      I2(9)     2
 UP BND1      I3(6)     2
 UP BND1      I4(6)     2
 UP BND1      I5(8)     2
 UP BND1      I6(10)    2
 UP BND1      I7(10)    2
 UP BND1      I8(6)     2
 UP BND1      I9(7)     2
ENDATA
